set VV := 0 1 2 3 4 ;
set VS := 0 1 2 3 4 5 6 7 8 9 10 11 12 13 14 ;
param cv := 
0 23
1 18
2 23
3 20
4 15
;
param cs := 
0 28
1 31
2 38
3 30
4 31
5 37
6 28
7 28
8 30
9 23
10 23
11 23
12 38
13 36
14 36
;
param bv:	 0 1 2 3 4 := 
		0 0 0 0 22 17 
		1 0 0 11 20 0 
		2 0 0 0 0 20 
		3 0 0 0 0 13 
		4 0 0 0 0 0 
;
param bs:	 0 1 2 3 4 5 6 7 8 9 10 11 12 13 14 := 
		0 0 0 0 0 30 0 0 0 30 31 0 0 0 0 0 
		1 0 0 0 0 0 25 0 0 23 0 0 0 0 0 0 
		2 0 0 0 0 0 0 0 0 0 0 0 25 34 0 0 
		3 0 0 0 0 0 0 0 0 40 0 0 33 0 0 0 
		4 30 0 0 0 0 0 0 0 0 0 37 0 0 26 0 
		5 0 25 0 0 0 0 0 0 0 0 0 0 0 40 0 
		6 0 0 0 0 0 0 0 32 0 0 0 0 23 0 0 
		7 0 0 0 0 0 0 32 0 0 0 0 0 26 0 0 
		8 30 23 0 40 0 0 0 0 0 38 0 0 0 0 0 
		9 31 0 0 0 0 0 0 0 38 0 0 0 0 0 26 
		10 0 0 0 0 37 0 0 0 0 0 0 0 0 0 0 
		11 0 0 25 33 0 0 0 0 0 0 0 0 0 0 0 
		12 0 0 34 0 0 0 23 26 0 0 0 0 0 0 0 
		13 0 0 0 0 26 40 0 0 0 0 0 0 0 0 0 
		14 0 0 0 0 0 0 0 0 0 26 0 0 0 0 0 
;
